(set-info :Origin "This instance was generated by: BanditFuzz-- an RL fuzzer for SMT solvers" )
(set-info :Author "Joe Scott, Fed Mora, Vijay Ganesh" )
(set-info :Contact "Joe Scott, joseph.scott@uwaterloo.ca")
; solvers/z3.sh
; 	time => 0.09639382362365723
; 	answer => sat
; solvers/cvc4.sh
; 	time => 0.07085609436035156
; 	answer => sat
(set-logic QF_NIRA)
(declare-const bool_0 Bool)
(declare-const bool_1 Bool)
(declare-const bool_2 Bool)
(declare-const bool_3 Bool)
(declare-const bool_4 Bool)
(declare-const int_0 Int)
(declare-const int_1 Int)
(declare-const int_2 Int)
(declare-const int_3 Int)
(declare-const int_4 Int)
(declare-const real_0 Real)
(declare-const real_1 Real)
(declare-const real_2 Real)
(declare-const real_3 Real)
(declare-const real_4 Real)
(assert (<= (/ (mod int_1 int_4) (/ int_1 (- 348836803))) (/ (/ int_4 int_1) (* 788395635 840867082))))
(assert (>= (mod (* 506691347 int_2) (- int_4)) (+ (- 567880775) (mod (- 44755573) 482837538))))
(assert (and (> (- int_0) (+ int_1 int_4)) (not (> real_2 894198249.3495779))))
(assert (or (or (< real_4 real_2) (< (- 472895899.9907098) real_3)) (>= (- (- 186568880)) (+ (- 813572125) int_1))))
(assert (> (- (+ int_1 int_2) (* int_2 (- 908674627))) (- (/ int_2 903325837))))
(check-sat)
(exit)
